50
856 214 930 1712 1284 428 279 837 1926 372 744 1926 651 1284 1070 930 1284 930 837 1284 1284 428 1926 93 279 1070 2140 1070 1498 372 372 2140 214 744 642 428 93 837 744 214 930 465 651 642 1070 372 856 214 1712 642 
4856 1214 10930 9712 7284 2428 3279 9837 10926 4372 8744 10926 7651 7284 6070 10930 7284 10930 9837 7284 7284 2428 10926 1093 3279 6070 12140 6070 8498 4372 4372 12140 1214 8744 3642 2428 1093 9837 8744 1214 10930 5465 7651 3642 6070 4372 4856 1214 9712 3642 
21742
